0 130 
1 135 
2 138 
3 141 
4 143 
5 141 
6 139 
7 139 
8 138 
9 138 
10 137 
11 136 
12 139 
13 135 
14 133 
15 134 
16 134 
17 134 
18 134 
19 133 
20 132 
21 130 
22 128 
23 128 
24 128 
25 127 
26 125 
27 127 
28 129 
29 130 
30 129 
31 129 
32 130 
33 131 
34 131 
35 131 
36 130 
37 131 
38 132 
39 131 
40 130 
41 128 
42 128 
43 127 
44 125 
45 126 
46 126 
47 125 
48 122 
49 119 
50 118 
51 119 
52 118 
53 116 
54 114 
55 115 
56 114 
57 115 
58 114 
59 113 
60 117 
61 117 
62 117 
63 117 
64 116 
65 115 
66 113 
67 113 
68 111 
69 111 
70 113 
71 113 
72 114 
73 114 
74 113 
75 112 
76 112 
77 112 
78 111 
79 110 
80 109 
81 108 
82 107 
83 106 
84 104 
85 104 
86 103 
87 102 
88 102 
89 100 
90 100 
91 99 
92 101 
93 102 
94 100 
95 99 
96 98 
97 100 
98 99 
99 98 
100 99 
101 98 
102 99 
103 99 
104 98 
105 96 
106 96 
107 95 
108 92 
109 90 
110 92 
111 90 
112 90 
113 89 
114 88 
115 88 
116 87 
117 84 
118 83 
119 81 
120 83 
121 84 
122 84 
123 84 
124 84 
125 84 
126 82 
127 80 
128 78 
129 77 
130 77 
131 76 
132 73 
133 72 
134 71 
135 70 
136 71 
137 72 
138 71 
139 70 
140 68 
141 66 
142 66 
143 63 
144 61 
145 61 
146 60 
147 61 
148 60 
149 60 
150 59 
151 60 
152 59 
153 57 
154 57 
155 55 
156 55 
157 53 
158 52 
159 50 
160 51 
161 50 
162 48 
163 47 
164 47 
165 45 
166 42 
167 44 
168 43 
169 41 
170 39 
171 36 
172 37 
173 37 
174 36 
175 35 
176 36 
177 36 
178 35 
179 33 
180 32 
181 36 
182 36 
183 36 
184 35 
185 34 
186 32 
187 31 
188 30 
189 28 
190 27 
191 29 
192 27 
193 25 
194 24 
195 21 
196 20 
197 21 
198 20 
199 18 
200 18 
201 19 
202 19 
203 19 
204 20 
205 21 
206 19 
207 18 
208 18 
209 17 
210 17 
211 17 
212 18 
213 17 
214 16 
215 15 
216 14 
217 13 
218 13 
219 12 
220 12 
221 13 
222 14 
223 13 
224 12 
225 11 
226 10 
227 8 
228 5 
229 5 
230 4 
231 3 
232 3 
233 2 
234 0 
235 0 

